
Gurobi 6.5.2 (linux64) logging started Tue Sep  6 10:06:21 2016

Optimize a model with 101 rows, 663 columns and 1327 nonzeros
Coefficient statistics:
  Matrix range    [1e+00, 2e+00]
  Objective range [2e+00, 1e+02]
  Bounds range    [1e+00, 1e+00]
  RHS range       [1e+00, 1e+00]
Presolve removed 51 rows and 50 columns
Presolve time: 0.00s
Presolved: 50 rows, 613 columns, 1226 nonzeros
Variable types: 0 continuous, 613 integer (613 binary)

Root relaxation: objective 8.540000e+02, 67 iterations, 0.00 seconds

    Nodes    |    Current Node    |     Objective Bounds      |     Work
 Expl Unexpl |  Obj  Depth IntInf | Incumbent    BestBd   Gap | It/Node Time

     0     0  854.25000    0   14          -  854.25000      -     -    0s
     0     0  854.50000    0    4          -  854.50000      -     -    0s
     0     0  854.50000    0    4          -  854.50000      -     -    0s
     0     2  854.50000    0    4          -  854.50000      -     -    0s
*  296   133              32     877.0000000  856.50000  2.34%   3.9    0s
*  398    68              18     875.0000000  857.00000  2.06%   4.0    0s
*  640   136              17     872.0000000  857.00000  1.72%   3.7    0s

Cutting planes:
  Zero half: 1
  Lazy constraints: 220

Explored 1926 nodes (5421 simplex iterations) in 0.22 seconds
Thread count was 8 (of 8 available processors)

Optimal solution found (tolerance 1.00e-04)
Best objective 8.720000000000e+02, best bound 8.720000000000e+02, gap 0.0%
